3987 4613
1160 727
700 1869
2283 2817
930 4484
902 718
4134 2744
3619 4125
939 3894
4171 2863
3747 1804
2393 1224
4327 2430
8 1352
3268 2430
312 4769
1205 3654
3608 2448
4584 2982
1057 173
3009 4732
4603 2319
1776 1048
745 1804
2632 2135
929 2126
321 3130
1850 1785
2402 3949
1352 3571
846 3249
993 4501
1334 1987
1775 2033
707 4326
1923 1711
2034 3525
3792 3074
845 2070
3203 3129
2613 3930
3433 1554
3101 4086
2760 1904
735 4952
3184 956
4492 1793
3552 2272
4519 1149
4372 1011
